webassembly/ejemplos_dzn/folder12_json_34.dzn
TERM = { '.', 's(5)', 's(2)', 's(4)', 'in_1', 'local_0', 'in_2', 'in_3', 's(8)', 's(6)', 's(1)', 's(0)', 's(7)', 's(3)', 'in_0'};
null = '.';
s = 12;
n = 10;
ndeps = 3;
max_registers_sz = 4;
NR = 1;
registers = [|'local_0', 's(6)'|];
dependencies = [|'call[function_index(0)]_0', 'i32.load8_u_5', |'i32.load8_u_5', 'i32.store_6', |'i32.store_6', 'call[function_index(1)]_9'|];
GET_ENUM = { GET1, GET2, GET3, GET4, GET5};
SET_ENUM = { SET1, SET2, SET3, SET4, SET5};
TEE_ENUM = { TEE1, TEE2, TEE3, TEE4, TEE5};
N = 7;
OP = { 'call[function_index(0)]_0', 'i32.const_0', 'call[function_index(1)]_9', 'i32.add_0', 'i32.load8_u_5', 'i32.sub_0', 'i32.store_6' };
in_ops = [1, 0, 2, 2, 1, 2, 2 ];
out_ops = [2, 1, 3, 1, 1, 1, 0 ];
in1 = ['in_0', '.', 's(8)', 's(1)', 's(2)', 'in_1', 's(4)' ];
in2 = ['.', '.', 'in_3', 's(0)', '.', 'in_2', 's(3)' ];
in3 = ['.', '.', '.', '.', '.', '.', '.' ];
out1 = ['s(1)', 's(8)', 's(7)', 's(2)', 's(4)', 's(3)', '.' ];
out2 = ['s(0)', '.', 's(6)', '.', '.', '.', '.' ];
out3 = ['.', '.', 's(5)', '.', '.', '.', '.' ];
comm = [false, false, false, true, false, false, false ];
gas = [1, 1, 1, 1, 1, 1, 1 ];
sz = [1, 1, 1, 1, 1, 1, 1 ];
stor = [true, false, true, false, false, false, true ];
lb = [ 1, 1, 1, 1, 1, 1, 1 ];
ub = [ 12, 12, 12, 12, 12, 12, 12 ];
startstack = [ 'in_0', 'in_1', 'in_2', 'in_3', null, null, null, null, null, null ];
endstack = [ 's(5)', null, null, null, null, null, null, null, null, null ];
